
Gurobi 7.5.2 (linux64) logging started Sat Jul  7 15:59:52 2018

Changed value of parameter LogFile to result/ilp/simNo_1-n_100-m_40-s_7-minVAF_0.05-cov_10000-k_2-fn_0.25-fp_0.0001-na_0.15.ILP.gurobiSolverLog
   Prev: gurobi.log  Default: 
Changed value of parameter TimeLimit to 86400.0
   Prev: 1e+100  Min: 0.0  Max: 1e+100  Default: 1e+100
Optimize a model with 639293 rows, 10765 columns and 1940420 nonzeros
Variable types: 0 continuous, 10765 integer (10765 binary)
Coefficient statistics:
  Matrix range     [1e-04, 4e+00]
  Objective range  [1e+00, 3e+01]
  Bounds range     [1e+00, 1e+00]
  RHS range        [6e-02, 2e+00]
Found heuristic solution: objective -13445.08927
Presolve removed 139039 rows and 1119 columns (presolve time = 5s) ...
Presolve removed 139712 rows and 1119 columns (presolve time = 10s) ...
Presolve removed 207012 rows and 1792 columns
Presolve time: 14.70s
Presolved: 432281 rows, 8973 columns, 1297283 nonzeros
Variable types: 0 continuous, 8973 integer (8973 binary)
Presolved: 8973 rows, 441254 columns, 1306256 nonzeros

Presolve removed 8973 rows and 441254 columns

Root simplex log...

Iteration    Objective       Primal Inf.    Dual Inf.      Time
       0    5.5419442e+01   0.000000e+00   6.537000e+04     18s
   18481   -2.4626573e+02   0.000000e+00   8.302056e+04     20s
   42891   -3.1798383e+02   0.000000e+00   3.850965e+04     25s
   60578   -3.3742217e+02   0.000000e+00   1.013867e+04     30s
   67202   -3.4205808e+02   0.000000e+00   0.000000e+00     34s
   67202   -3.4205808e+02   0.000000e+00   0.000000e+00     35s

Root relaxation: objective -3.420581e+02, 67202 iterations, 18.74 seconds
Total elapsed time = 35.33s
Total elapsed time = 64.80s
Total elapsed time = 83.90s
Total elapsed time = 102.79s

    Nodes    |    Current Node    |     Objective Bounds      |     Work
 Expl Unexpl |  Obj  Depth IntInf | Incumbent    BestBd   Gap | It/Node Time

     0     0 -342.05808    0  478 -13445.089 -342.05808  97.5%     -  113s
H    0     0                    -364.5011778 -342.05808  6.16%     -  115s
H    0     0                    -354.2997710 -342.05808  3.46%     -  117s
     0     0 -344.09836    0  476 -354.29977 -344.09836  2.88%     -  372s
H    0     0                    -350.2192083 -344.09836  1.75%     -  376s
     0     0 -346.13865    0  398 -350.21921 -346.13865  1.17%     -  757s
     0     0 -346.13865    0  478 -350.21921 -346.13865  1.17%     -  847s
     0     0 -346.13865    0  459 -350.21921 -346.13865  1.17%     -  852s
     0     0 -346.13865    0  456 -350.21921 -346.13865  1.17%     -  854s
     0     0 -347.15879    0  457 -350.21921 -347.15879  0.87%     -  856s
     0     0 -347.15879    0  452 -350.21921 -347.15879  0.87%     -  858s
     0     0 -347.15879    0  260 -350.21921 -347.15879  0.87%     -  868s
     0     0 -347.15879    0  478 -350.21921 -347.15879  0.87%     -  875s
     0     0 -347.15879    0  284 -350.21921 -347.15879  0.87%     -  876s
     0     0 -347.15879    0  477 -350.21921 -347.15879  0.87%     -  877s
     0     0 -347.15879    0  482 -350.21921 -347.15879  0.87%     -  877s
     0     0 -347.15879    0  481 -350.21921 -347.15879  0.87%     -  877s
     0     0 -347.15879    0  230 -350.21921 -347.15879  0.87%     -  878s
     0     0 -347.15879    0  477 -350.21921 -347.15879  0.87%     -  878s
     0     0 -347.15879    0  442 -350.21921 -347.15879  0.87%     -  879s
     0     0 -347.39420    0  492 -350.21921 -347.39420  0.81%     -  879s
     0     0 -347.49883    0  488 -350.21921 -347.49883  0.78%     -  879s
     0     0 -347.66886    0  337 -350.21921 -347.66886  0.73%     -  879s
     0     0 -347.77087    0  336 -350.21921 -347.77087  0.70%     -  879s
     0     0 -347.77087    0  337 -350.21921 -347.77087  0.70%     -  879s
     0     0 -347.77087    0  318 -350.21921 -347.77087  0.70%     -  879s
     0     0 -347.83888    0  292 -350.21921 -347.83888  0.68%     -  879s
     0     0 -347.83888    0  293 -350.21921 -347.83888  0.68%     -  879s
     0     0 -348.17893    0  277 -350.21921 -348.17893  0.58%     -  879s
     0     0 -348.17893    0  257 -350.21921 -348.17893  0.58%     -  879s
     0     0 -348.27608    0  287 -350.21921 -348.27608  0.55%     -  879s
     0     0 -348.27608    0  289 -350.21921 -348.27608  0.55%     -  879s
     0     0 -348.70789    0  291 -350.21921 -348.70789  0.43%     -  880s
     0     0 -348.70789    0  171 -350.21921 -348.70789  0.43%     -  880s
     0     0 -349.19907    0   50 -350.21921 -349.19907  0.29%     -  880s
     0     0 -349.19907    0    3 -350.21921 -349.19907  0.29%     -  880s
H    0     0                    -349.1990677 -349.19907  0.00%     -  880s

Cutting planes:
  Gomory: 2
  Zero half: 13

Explored 1 nodes (177444 simplex iterations) in 880.61 seconds
Thread count was 1 (of 80 available processors)

Solution count 9: -349.199 -350.219 -350.219 ... -13445.1

Optimal solution found (tolerance 1.00e-04)
Best objective -3.491990676543e+02, best bound -3.491990676542e+02, gap 0.0000%
